TCS_Benchmarks/redos_fix/snort4_output_distinct_334_333_1_0.txt
(.*)(.*)
(.*)(#[cC][oO][nN][tT][eE][xX][tT])(.*)